1 1 -2 0
1 3 -4 0
1 -3 -2 0
1 -3 1 0
1 5 -2 0
1 6 -7 0
1 6 -4 0
1 6 -8 0
1 -6 9 0
1 -6 10 0
1 -2 11 0
1 2 -12 0
1 2 6 0
1 -2 13 0
1 -2 -14 0
1 -2 -15 0
1 -2 5 0
1 -2 1 0
1 10 16 0
1 10 -3 0
1 -10 13 0
1 10 -15 0
1 10 1 0
1 4 -16 0
1 4 17 0
1 -4 -6 0
1 4 -13 0
1 -4 18 0
1 -4 19 0
1 -4 -5 0
1 4 20 0
1 -20 17 0
1 -20 -1 0
1 20 21 0
1 -15 7 0
1 15 2 0
1 -15 -9 0
1 -15 10 0
1 -12 -22 0
1 12 -8 0
1 -12 9 0
1 -12 15 0
1 -14 -2 0
1 -14 -9 0
1 -14 23 0
1 -11 -24 0
1 -11 2 0
1 -11 -9 0
1 11 -14 0
1 -11 -10 0
1 -9 25 0
1 -9 6 0
1 9 26 0
1 -9 -27 0
1 9 5 0
1 9 28 0
1 -7 -25 0
1 -7 -12 0
1 -7 -29 0
1 7 -14 0
1 7 -15 0
1 7 5 0
1 -8 -30 0
1 -8 -11 0
1 8 6 0
1 8 31 0
1 8 13 0
1 30 11 0
1 -30 -12 0
1 30 -8 0
1 -30 15 0
1 30 5 0
1 27 32 0
1 27 -13 0
1 -27 -33 0
1 32 -27 0
1 -32 23 0
1 -32 33 0
1 29 -25 0
1 -29 -7 0
1 29 -31 0
1 -29 9 0
1 -29 -33 0
1 25 29 0
1 25 -9 0
1 -33 -25 0
1 -33 -32 0
1 33 -11 0
1 33 14 0
1 -23 -25 0
1 -23 -29 0
1 23 14 0
1 -23 34 0
1 23 28 0
1 35 -36 0
1 -35 27 0
1 35 -14 0
1 -35 23 0
1 35 34 0
1 -19 37 0
1 -19 38 0
1 -19 4 0
1 -19 -39 0
1 -19 -15 0
1 19 -20 0
1 22 19 0
1 -22 20 0
1 -18 37 0
1 -18 4 0
1 -18 -14 0
1 -18 39 0
1 -18 20 0
1 17 -11 0
1 -17 -37 0
1 17 40 0
1 17 4 0
1 -17 41 0
1 17 -42 0
1 -38 -31 0
1 -38 13 0
1 38 -18 0
1 39 -17 0
1 -39 -22 0
1 37 -17 0
1 37 19 0
1 41 -19 0
1 13 38 0
1 -13 -39 0
1 13 -20 0
1 16 -32 0
1 16 38 0
1 16 43 0
1 16 2 0
1 -16 8 0
1 16 13 0
1 -16 -39 0
1 -16 42 0
1 16 -20 0
1 -16 -10 0
1 31 44 0
1 -31 30 0
1 -31 -45 0
1 31 40 0
1 31 46 0
1 -31 21 0
1 45 -25 0
1 -45 -43 0
1 45 -40 0
1 -45 31 0
1 45 47 0
1 45 -42 0
1 45 -21 0
1 -40 45 0
1 -40 18 0
1 -40 34 0
1 -42 -16 0
1 -42 -31 0
1 42 -18 0
1 42 -28 0
1 -43 45 0
1 43 31 0
1 -43 13 0
1 47 43 0
1 -26 35 0
1 -26 -8 0
1 -26 -21 0
1 -28 30 0
1 28 40 0
1 -28 -48 0
1 -28 8 0
1 28 23 0
1 28 -21 0
1 -36 -21 0
1 34 35 0
1 -34 42 0
1 48 44 0
1 48 -2 0
1 44 -36 0
1 44 48 0
1 -46 45 0
1 46 31 0
1 -46 -34 0
1 46 -28 0
1 21 -45 0
1 -21 31 0
